Normalized Data/p01_10_normalized_splitx10_0.vrp
NAME:p01_10_NORMALIZED_splitx10_
BEST_KNOWN: 0
COMMENT: 0
DIMENSION: 220
CAPACITY: 1000
EDGE_WEIGHT_FORMAT: FUNCTION
EDGE_WEIGHT_TYPE: EXACT_2D
NODE_COORD_SECTION
1 0.00000 0.00000
2 -34 6
3 -34 6
4 -34 6
5 -34 6
6 -12 46
7 -12 46
8 -12 46
9 7 37
10 7 37
11 7 37
12 7 37
13 7 37
14 7 37
15 -22 11
16 -22 11
17 -22 11
18 -22 11
19 30 43
20 30 43
21 30 43
22 30 43
23 30 43
24 30 43
25 18 -6
26 18 -6
27 18 -6
28 18 -6
29 18 -6
30 18 -6
31 18 -6
32 16 -19
33 16 -19
34 16 -19
35 16 -19
36 16 -19
37 16 -19
38 1 -37
39 1 -37
40 1 -37
41 1 -37
42 1 -37
43 1 -37
44 -41 -24
45 -41 -24
46 -41 -24
47 -41 -24
48 -41 -24
49 -41 -24
50 46 -40
51 46 -40
52 46 -40
53 46 -40
54 42 28
55 42 28
56 42 28
57 42 28
58 42 28
59 42 28
60 42 28
61 -39 -46
62 -39 -46
63 -39 -46
64 12 -9
65 12 -9
66 12 -9
67 12 -9
68 12 -9
69 -10 -17
70 -10 -17
71 14 15
72 14 15
73 14 15
74 14 15
75 14 15
76 14 15
77 14 15
78 -19 -28
79 -19 -28
80 -19 -28
81 -19 -28
82 -19 -28
83 -19 -28
84 2 -24
85 2 -24
86 2 -24
87 2 -24
88 2 -24
89 2 -24
90 2 -24
91 -13 30
92 -13 30
93 -13 30
94 -13 30
95 -13 30
96 6 -48
97 6 -48
98 44 -35
99 44 -35
100 37 2
101 37 2
102 13 7
103 13 7
104 -19 -40
105 -19 -40
106 -19 -40
107 -19 -40
108 -19 -40
109 -44 29
110 -44 29
111 -44 29
112 -44 29
113 -44 29
114 -36 38
115 -36 38
116 -36 38
117 -36 38
118 -36 38
119 -36 38
120 4 -14
121 4 -14
122 4 -14
123 4 -14
124 45 33
125 45 33
126 45 33
127 45 33
128 -49 39
129 -49 39
130 -49 39
131 -49 39
132 -49 39
133 -18 34
134 -18 34
135 -27 -45
136 -27 -45
137 -27 -45
138 -50 17
139 -50 17
140 -50 17
141 -50 17
142 -50 17
143 50 -47
144 50 -47
145 50 -47
146 50 -47
147 5 9
148 5 9
149 -3 40
150 -3 40
151 -3 40
152 -3 40
153 -3 40
154 -3 40
155 17 11
156 17 11
157 17 11
158 17 11
159 17 11
160 31 -15
161 31 -15
162 31 -15
163 -27 45
164 -27 45
165 -27 45
166 23 44
167 23 44
168 23 44
169 23 44
170 23 44
171 18 36
172 18 36
173 18 36
174 18 36
175 18 36
176 18 36
177 -34 -20
178 -34 -20
179 -34 -20
180 -34 -20
181 48 -38
182 48 -38
183 48 -38
184 48 -38
185 -20 -17
186 -20 -17
187 -20 -17
188 37 44
189 37 44
190 37 44
191 37 44
192 37 44
193 -2 38
194 -2 38
195 -2 38
196 35 -27
197 35 -27
198 35 -27
199 35 -27
200 35 -27
201 35 -27
202 -33 35
203 -33 35
204 -33 35
205 42 11
206 42 11
207 42 11
208 -42 42
209 -42 42
210 -42 42
211 -42 42
212 -42 42
213 6 29
214 6 29
215 6 29
216 -21 8
217 -21 8
218 -21 8
219 -21 8
220 -21 8
DEMAND_SECTION
1 0
2 100
3 10
4 10
5 10
6 200
7 10
8 10
9 200
10 100
11 50
12 10
13 10
14 10
15 200
16 200
17 50
18 10
19 200
20 200
21 50
22 10
23 10
24 10
25 200
26 200
27 50
28 10
29 10
30 10
31 10
32 200
33 200
34 50
35 10
36 10
37 10
38 200
39 200
40 10
41 10
42 10
43 10
44 200
45 50
46 10
47 10
48 10
49 10
50 100
51 10
52 10
53 10
54 200
55 200
56 50
57 10
58 10
59 10
60 10
61 200
62 100
63 50
64 200
65 200
66 50
67 10
68 10
69 200
70 50
71 200
72 100
73 50
74 10
75 10
76 10
77 10
78 200
79 200
80 10
81 10
82 10
83 10
84 200
85 200
86 50
87 10
88 10
89 10
90 10
91 200
92 100
93 50
94 10
95 10
96 200
97 10
98 100
99 50
100 200
101 10
102 200
103 200
104 200
105 10
106 10
107 10
108 10
109 200
110 50
111 10
112 10
113 10
114 200
115 200
116 50
117 10
118 10
119 10
120 200
121 200
122 50
123 10
124 200
125 100
126 10
127 10
128 200
129 200
130 10
131 10
132 10
133 200
134 100
135 200
136 200
137 50
138 200
139 200
140 10
141 10
142 10
143 200
144 100
145 50
146 10
147 200
148 200
149 200
150 200
151 50
152 10
153 10
154 10
155 100
156 50
157 10
158 10
159 10
160 200
161 100
162 10
163 200
164 50
165 10
166 200
167 50
168 10
169 10
170 10
171 200
172 200
173 50
174 10
175 10
176 10
177 200
178 100
179 50
180 10
181 100
182 50
183 10
184 10
185 200
186 100
187 50
188 200
189 50
190 10
191 10
192 10
193 200
194 100
195 50
196 100
197 50
198 10
199 10
200 10
201 10
202 200
203 200
204 10
205 200
206 200
207 100
208 100
209 50
210 10
211 10
212 10
213 100
214 50
215 10
216 200
217 100
218 10
219 10
220 10
DEPOT_SECTION
1
-1
EOF