Normalized Data/p01_10_normalized_splitx10_0.sol
219 -3 2 4 1 138 141 137 140 139 201 202 203 -15 17 16 14 219 215 218 216 217 -18 19 22 21 20 23 190 189 191 188 187 70 75 -25 160 161 159 34 32 35 33 36 31 -29 30 27 28 24 26 99 100 204 205 206 -39 37 42 38 40 41 89 85 87 88 86 83 84 -52 51 50 49 144 142 145 143 180 183 181 182 98 97 200 196 195 198 197 199 -61 62 60 44 47 43 46 48 45 177 178 179 176 -67 66 65 64 63 119 121 120 122 -68 78 77 82 80 81 79 184 185 186 -69 104 103 107 106 105 135 134 136 95 96 -76 71 74 72 73 165 169 167 166 168 175 172 170 171 174 173 -91 93 90 94 92 7 5 6 150 151 193 194 192 -101 102 147 146 -109 111 110 108 112 127 131 129 128 130 207 208 210 209 211 115 118 -117 116 113 114 164 163 162 132 133 -126 125 123 124 54 57 59 53 58 55 56 154 155 156 157 158 -153 149 152 148 11 8 12 9 10 13 214 212 213 0 





OBJ=
1733.166
BEST_KNOWN=
0.000